NAME : prob25c
TYPE : PDTSP
DIMENSION : 51
EDGE_WEIGHT_TYPE : EUC_2D
NODE_COORD_SECTION
1 955 199
2 577 81
3 753 306
4 667 86
5 32 36
6 405 265
7 751 933
8 443 195
9 314 856
10 405 808
11 432 279
12 591 156
13 728 942
14 69 405
15 956 975
16 668 655
17 470 768
18 640 743
19 879 123
20 470 421
21 231 166
22 240 762
23 217 282
24 742 458
25 783 841
26 415 872
27 566 874
28 868 626
29 885 331
30 41 920
31 990 229
32 583 62
33 210 500
34 250 319
35 664 598
36 627 735
37 29 120
38 274 96
39 317 491
40 94 477
41 639 892
42 873 561
43 278 560
44 195 992
45 159 515
46 343 935
47 570 112
48 80 657
49 128 54
50 909 527
51 856 34
PICKUP_AND_DELIVERY_SECTION
1 0 0 0 0 0 0
2 0 0 0 0 27 0
3 0 0 0 0 28 0
4 0 0 0 0 29 0
5 0 0 0 0 30 0
6 0 0 0 0 31 0
7 0 0 0 0 32 0
8 0 0 0 0 33 0
9 0 0 0 0 34 0
10 0 0 0 0 35 0
11 0 0 0 0 36 0
12 0 0 0 0 37 0
13 0 0 0 0 38 0
14 0 0 0 0 39 0
15 0 0 0 0 40 0
16 0 0 0 0 41 0
17 0 0 0 0 42 0
18 0 0 0 0 43 0
19 0 0 0 0 44 0
20 0 0 0 0 45 0
21 0 0 0 0 46 0
22 0 0 0 0 47 0
23 0 0 0 0 48 0
24 0 0 0 0 49 0
25 0 0 0 0 50 0
26 0 0 0 0 51 0
27 0 0 0 0 0 2
28 0 0 0 0 0 3
29 0 0 0 0 0 4
30 0 0 0 0 0 5
31 0 0 0 0 0 6
32 0 0 0 0 0 7
33 0 0 0 0 0 8
34 0 0 0 0 0 9
35 0 0 0 0 0 10
36 0 0 0 0 0 11
37 0 0 0 0 0 12
38 0 0 0 0 0 13
39 0 0 0 0 0 14
40 0 0 0 0 0 15
41 0 0 0 0 0 16
42 0 0 0 0 0 17
43 0 0 0 0 0 18
44 0 0 0 0 0 19
45 0 0 0 0 0 20
46 0 0 0 0 0 21
47 0 0 0 0 0 22
48 0 0 0 0 0 23
49 0 0 0 0 0 24
50 0 0 0 0 0 25
51 0 0 0 0 0 26
DEPOT_SECTION
1 
-1
EOF
